c nIsolatedPIs 16
c maxPI 16
p cnf 184 505
c gate 17 1 15 0
1 -17 0
15 -17 0
-1 -15 17 0
c gate 18 2 13 0
2 -18 0
13 -18 0
-2 -13 18 0
c gate 19 3 12 0
3 -19 0
12 -19 0
-3 -12 19 0
c gate 20 18 19 0
18 -20 0
19 -20 0
-18 -19 20 0
c gate 21 1 14 0
1 -21 0
14 -21 0
-1 -14 21 0
c gate 22 -18 -19 0
-18 -22 0
-19 -22 0
18 19 22 0
c gate 23 -20 -22 0
-20 -23 0
-22 -23 0
20 22 23 0
c gate 24 21 23 0
21 -24 0
23 -24 0
-21 -23 24 0
c gate 25 -20 -24 0
-20 -25 0
-24 -25 0
20 24 25 0
c gate 26 17 -25 0
17 -26 0
-25 -26 0
-17 25 26 0
c gate 27 4 10 0
4 -27 0
10 -27 0
-4 -10 27 0
c gate 28 5 9 0
5 -28 0
9 -28 0
-5 -9 28 0
c gate 29 27 28 0
27 -29 0
28 -29 0
-27 -28 29 0
c gate 30 3 11 0
3 -30 0
11 -30 0
-3 -11 30 0
c gate 31 -27 -28 0
-27 -31 0
-28 -31 0
27 28 31 0
c gate 32 -29 -31 0
-29 -32 0
-31 -32 0
29 31 32 0
c gate 33 30 32 0
30 -33 0
32 -33 0
-30 -32 33 0
c gate 34 -29 -33 0
-29 -34 0
-33 -34 0
29 33 34 0
c gate 35 4 11 0
4 -35 0
11 -35 0
-4 -11 35 0
c gate 36 5 10 0
5 -36 0
10 -36 0
-5 -10 36 0
c gate 37 6 9 0
6 -37 0
9 -37 0
-6 -9 37 0
c gate 38 36 37 0
36 -38 0
37 -38 0
-36 -37 38 0
c gate 39 -36 -37 0
-36 -39 0
-37 -39 0
36 37 39 0
c gate 40 -38 -39 0
-38 -40 0
-39 -40 0
38 39 40 0
c gate 41 35 40 0
35 -41 0
40 -41 0
-35 -40 41 0
c gate 42 -35 -40 0
-35 -42 0
-40 -42 0
35 40 42 0
c gate 43 -41 -42 0
-41 -43 0
-42 -43 0
41 42 43 0
c gate 44 -34 43 0
-34 -44 0
43 -44 0
34 -43 44 0
c gate 45 -21 -23 0
-21 -45 0
-23 -45 0
21 23 45 0
c gate 46 -24 -45 0
-24 -46 0
-45 -46 0
24 45 46 0
c gate 47 34 -43 0
34 -47 0
-43 -47 0
-34 43 47 0
c gate 48 -44 -47 0
-44 -48 0
-47 -48 0
44 47 48 0
c gate 49 46 48 0
46 -49 0
48 -49 0
-46 -48 49 0
c gate 50 -44 -49 0
-44 -50 0
-49 -50 0
44 49 50 0
c gate 51 2 14 0
2 -51 0
14 -51 0
-2 -14 51 0
c gate 52 4 12 0
4 -52 0
12 -52 0
-4 -12 52 0
c gate 53 3 13 0
3 -53 0
13 -53 0
-3 -13 53 0
c gate 54 -52 -53 0
-52 -54 0
-53 -54 0
52 53 54 0
c gate 55 52 53 0
52 -55 0
53 -55 0
-52 -53 55 0
c gate 56 -54 -55 0
-54 -56 0
-55 -56 0
54 55 56 0
c gate 57 51 56 0
51 -57 0
56 -57 0
-51 -56 57 0
c gate 58 -51 -56 0
-51 -58 0
-56 -58 0
51 56 58 0
c gate 59 -57 -58 0
-57 -59 0
-58 -59 0
57 58 59 0
c gate 60 -38 -41 0
-38 -60 0
-41 -60 0
38 41 60 0
c gate 61 5 11 0
5 -61 0
11 -61 0
-5 -11 61 0
c gate 62 7 9 0
7 -62 0
9 -62 0
-7 -9 62 0
c gate 63 6 10 0
6 -63 0
10 -63 0
-6 -10 63 0
c gate 64 62 63 0
62 -64 0
63 -64 0
-62 -63 64 0
c gate 65 -62 -63 0
-62 -65 0
-63 -65 0
62 63 65 0
c gate 66 -64 -65 0
-64 -66 0
-65 -66 0
64 65 66 0
c gate 67 61 66 0
61 -67 0
66 -67 0
-61 -66 67 0
c gate 68 -61 -66 0
-61 -68 0
-66 -68 0
61 66 68 0
c gate 69 -67 -68 0
-67 -69 0
-68 -69 0
67 68 69 0
c gate 70 -60 69 0
-60 -70 0
69 -70 0
60 -69 70 0
c gate 71 60 -69 0
60 -71 0
-69 -71 0
-60 69 71 0
c gate 72 -70 -71 0
-70 -72 0
-71 -72 0
70 71 72 0
c gate 73 59 72 0
59 -73 0
72 -73 0
-59 -72 73 0
c gate 74 -59 -72 0
-59 -74 0
-72 -74 0
59 72 74 0
c gate 75 -73 -74 0
-73 -75 0
-74 -75 0
73 74 75 0
c gate 76 -50 75 0
-50 -76 0
75 -76 0
50 -75 76 0
c gate 77 -17 25 0
-17 -77 0
25 -77 0
17 -25 77 0
c gate 78 -26 -77 0
-26 -78 0
-77 -78 0
26 77 78 0
c gate 79 50 -75 0
50 -79 0
-75 -79 0
-50 75 79 0
c gate 80 -76 -79 0
-76 -80 0
-79 -80 0
76 79 80 0
c gate 81 78 80 0
78 -81 0
80 -81 0
-78 -80 81 0
c gate 82 -76 -81 0
-76 -82 0
-81 -82 0
76 81 82 0
c gate 83 -70 -73 0
-70 -83 0
-73 -83 0
70 73 83 0
c gate 84 -64 -67 0
-64 -84 0
-67 -84 0
64 67 84 0
c gate 85 8 9 0
8 -85 0
9 -85 0
-8 -9 85 0
c gate 86 7 10 0
7 -86 0
10 -86 0
-7 -10 86 0
c gate 87 -85 -86 0
-85 -87 0
-86 -87 0
85 86 87 0
c gate 88 85 86 0
85 -88 0
86 -88 0
-85 -86 88 0
c gate 89 -87 -88 0
-87 -89 0
-88 -89 0
87 88 89 0
c gate 90 6 11 0
6 -90 0
11 -90 0
-6 -11 90 0
c gate 91 89 -90 0
89 -91 0
-90 -91 0
-89 90 91 0
c gate 92 -89 90 0
-89 -92 0
90 -92 0
89 -90 92 0
c gate 93 -91 -92 0
-91 -93 0
-92 -93 0
91 92 93 0
c gate 94 84 93 0
84 -94 0
93 -94 0
-84 -93 94 0
c gate 95 -84 -93 0
-84 -95 0
-93 -95 0
84 93 95 0
c gate 96 -94 -95 0
-94 -96 0
-95 -96 0
94 95 96 0
c gate 97 3 14 0
3 -97 0
14 -97 0
-3 -14 97 0
c gate 98 5 12 0
5 -98 0
12 -98 0
-5 -12 98 0
c gate 99 4 13 0
4 -99 0
13 -99 0
-4 -13 99 0
c gate 100 -98 -99 0
-98 -100 0
-99 -100 0
98 99 100 0
c gate 101 98 99 0
98 -101 0
99 -101 0
-98 -99 101 0
c gate 102 -100 -101 0
-100 -102 0
-101 -102 0
100 101 102 0
c gate 103 97 102 0
97 -103 0
102 -103 0
-97 -102 103 0
c gate 104 -97 -102 0
-97 -104 0
-102 -104 0
97 102 104 0
c gate 105 -103 -104 0
-103 -105 0
-104 -105 0
103 104 105 0
c gate 106 96 -105 0
96 -106 0
-105 -106 0
-96 105 106 0
c gate 107 -96 105 0
-96 -107 0
105 -107 0
96 -105 107 0
c gate 108 -106 -107 0
-106 -108 0
-107 -108 0
106 107 108 0
c gate 109 83 108 0
83 -109 0
108 -109 0
-83 -108 109 0
c gate 110 -83 -108 0
-83 -110 0
-108 -110 0
83 108 110 0
c gate 111 -109 -110 0
-109 -111 0
-110 -111 0
109 110 111 0
c gate 112 2 15 0
2 -112 0
15 -112 0
-2 -15 112 0
c gate 113 1 16 0
1 -113 0
16 -113 0
-1 -16 113 0
c gate 114 112 113 0
112 -114 0
113 -114 0
-112 -113 114 0
c gate 115 -112 -113 0
-112 -115 0
-113 -115 0
112 113 115 0
c gate 116 -114 -115 0
-114 -116 0
-115 -116 0
114 115 116 0
c gate 117 -55 -57 0
-55 -117 0
-57 -117 0
55 57 117 0
c gate 118 -116 117 0
-116 -118 0
117 -118 0
116 -117 118 0
c gate 119 116 -117 0
116 -119 0
-117 -119 0
-116 117 119 0
c gate 120 -118 -119 0
-118 -120 0
-119 -120 0
118 119 120 0
c gate 121 111 -120 0
111 -121 0
-120 -121 0
-111 120 121 0
c gate 122 -111 120 0
-111 -122 0
120 -122 0
111 -120 122 0
c gate 123 -121 -122 0
-121 -123 0
-122 -123 0
121 122 123 0
c gate 124 -82 -123 0
-82 -124 0
-123 -124 0
82 123 124 0
c gate 125 82 123 0
82 -125 0
123 -125 0
-82 -123 125 0
c gate 126 -124 -125 0
-124 -126 0
-125 -126 0
124 125 126 0
c gate 127 26 126 0
26 -127 0
126 -127 0
-26 -126 127 0
c gate 128 -26 -126 0
-26 -128 0
-126 -128 0
26 126 128 0
c gate 129 -127 -128 0
-127 -129 0
-128 -129 0
127 128 129 0
c gate 130 2 11 0
2 -130 0
11 -130 0
-2 -11 130 0
c gate 131 3 10 0
3 -131 0
10 -131 0
-3 -10 131 0
c gate 132 4 9 0
4 -132 0
9 -132 0
-4 -9 132 0
c gate 133 -131 -132 0
-131 -133 0
-132 -133 0
131 132 133 0
c gate 134 131 132 0
131 -134 0
132 -134 0
-131 -132 134 0
c gate 135 -133 -134 0
-133 -135 0
-134 -135 0
133 134 135 0
c gate 136 -130 -135 0
-130 -136 0
-135 -136 0
130 135 136 0
c gate 137 130 135 0
130 -137 0
135 -137 0
-130 -135 137 0
c gate 138 -136 -137 0
-136 -138 0
-137 -138 0
136 137 138 0
c gate 139 3 9 0
3 -139 0
9 -139 0
-3 -9 139 0
c gate 140 2 10 0
2 -140 0
10 -140 0
-2 -10 140 0
c gate 141 139 140 0
139 -141 0
140 -141 0
-139 -140 141 0
c gate 142 -139 -140 0
-139 -142 0
-140 -142 0
139 140 142 0
c gate 143 1 11 0
1 -143 0
11 -143 0
-1 -11 143 0
c gate 144 -142 143 0
-142 -144 0
143 -144 0
142 -143 144 0
c gate 145 -141 -144 0
-141 -145 0
-144 -145 0
141 144 145 0
c gate 146 138 -145 0
138 -146 0
-145 -146 0
-138 145 146 0
c gate 147 1 12 0
1 -147 0
12 -147 0
-1 -12 147 0
c gate 148 -138 145 0
-138 -148 0
145 -148 0
138 -145 148 0
c gate 149 -146 -148 0
-146 -149 0
-148 -149 0
146 148 149 0
c gate 150 147 149 0
147 -150 0
149 -150 0
-147 -149 150 0
c gate 151 -146 -150 0
-146 -151 0
-150 -151 0
146 150 151 0
c gate 152 1 13 0
1 -152 0
13 -152 0
-1 -13 152 0
c gate 153 2 12 0
2 -153 0
12 -153 0
-2 -12 153 0
c gate 154 -152 -153 0
-152 -154 0
-153 -154 0
152 153 154 0
c gate 155 152 153 0
152 -155 0
153 -155 0
-152 -153 155 0
c gate 156 -154 -155 0
-154 -156 0
-155 -156 0
154 155 156 0
c gate 157 -134 -137 0
-134 -157 0
-137 -157 0
134 137 157 0
c gate 158 -30 -32 0
-30 -158 0
-32 -158 0
30 32 158 0
c gate 159 -33 -158 0
-33 -159 0
-158 -159 0
33 158 159 0
c gate 160 -157 159 0
-157 -160 0
159 -160 0
157 -159 160 0
c gate 161 157 -159 0
157 -161 0
-159 -161 0
-157 159 161 0
c gate 162 -160 -161 0
-160 -162 0
-161 -162 0
160 161 162 0
c gate 163 -156 -162 0
-156 -163 0
-162 -163 0
156 162 163 0
c gate 164 156 162 0
156 -164 0
162 -164 0
-156 -162 164 0
c gate 165 -163 -164 0
-163 -165 0
-164 -165 0
163 164 165 0
c gate 166 -151 165 0
-151 -166 0
165 -166 0
151 -165 166 0
c gate 167 -160 -164 0
-160 -167 0
-164 -167 0
160 164 167 0
c gate 168 -46 -48 0
-46 -168 0
-48 -168 0
46 48 168 0
c gate 169 -49 -168 0
-49 -169 0
-168 -169 0
49 168 169 0
c gate 170 -167 169 0
-167 -170 0
169 -170 0
167 -169 170 0
c gate 171 167 -169 0
167 -171 0
-169 -171 0
-167 169 171 0
c gate 172 -170 -171 0
-170 -172 0
-171 -172 0
170 171 172 0
c gate 173 155 172 0
155 -173 0
172 -173 0
-155 -172 173 0
c gate 174 -170 -173 0
-170 -174 0
-173 -174 0
170 173 174 0
c gate 175 -78 -80 0
-78 -175 0
-80 -175 0
78 80 175 0
c gate 176 -81 -175 0
-81 -176 0
-175 -176 0
81 175 176 0
c gate 177 174 -176 0
174 -177 0
-176 -177 0
-174 176 177 0
c gate 178 -174 176 0
-174 -178 0
176 -178 0
174 -176 178 0
c gate 179 -155 -172 0
-155 -179 0
-172 -179 0
155 172 179 0
c gate 180 -173 -179 0
-173 -180 0
-179 -180 0
173 179 180 0
c gate 181 -178 180 0
-178 -181 0
180 -181 0
178 -180 181 0
c gate 182 -177 181 0
-177 -182 0
181 -182 0
177 -181 182 0
c gate 183 166 182 0
166 -183 0
182 -183 0
-166 -182 183 0
c gate 184 129 183 0
129 -184 0
183 -184 0
-129 -183 184 0
c PO
184 0
